\ This file has been generated by DOcplex
\ ENCODING=ISO-8859-1
\Problem name: mknap4

Maximize
 obj: 560 x_0 + 1125 x_1 + 300 x_2 + 620 x_3 + 2100 x_4 + 431 x_5 + 68 x_6
      + 328 x_7 + 47 x_8 + 122 x_9 + 322 x_10 + 196 x_11 + 41 x_12 + 25 x_13
      + 425 x_14 + 4260 x_15 + 416 x_16 + 115 x_17 + 82 x_18 + 22 x_19
      + 631 x_20 + 132 x_21 + 420 x_22 + 86 x_23 + 42 x_24 + 103 x_25 + 215 x_26
      + 81 x_27 + 91 x_28 + 26 x_29 + 49 x_30 + 420 x_31 + 316 x_32 + 72 x_33
      + 71 x_34 + 49 x_35 + 108 x_36 + 116 x_37 + 90 x_38
Subject To
 c1: 40 x_0 + 91 x_1 + 10 x_2 + 30 x_3 + 160 x_4 + 20 x_5 + 3 x_6 + 12 x_7
     + 3 x_8 + 18 x_9 + 9 x_10 + 25 x_11 + x_12 + x_13 + 10 x_14 + 280 x_15
     + 10 x_16 + 8 x_17 + x_18 + x_19 + 49 x_20 + 8 x_21 + 21 x_22 + 6 x_23
     + x_24 + 5 x_25 + 10 x_26 + 8 x_27 + 2 x_28 + x_29 + 10 x_31 + 42 x_32
     + 6 x_33 + 4 x_34 + 8 x_35 + 10 x_37 + x_38 <= 600
 c2: 16 x_0 + 92 x_1 + 41 x_2 + 16 x_3 + 150 x_4 + 23 x_5 + 4 x_6 + 18 x_7
     + 6 x_8 + 12 x_10 + 8 x_11 + 2 x_12 + x_13 + 200 x_15 + 20 x_16 + 6 x_17
     + 2 x_18 + x_19 + 70 x_20 + 9 x_21 + 22 x_22 + 4 x_23 + x_24 + 5 x_25
     + 10 x_26 + 6 x_27 + 4 x_28 + 4 x_30 + 12 x_31 + 8 x_32 + 4 x_33 + 3 x_34
     + 10 x_36 + 6 x_38 <= 500
 c3: 38 x_0 + 39 x_1 + 32 x_2 + 71 x_3 + 80 x_4 + 26 x_5 + 5 x_6 + 40 x_7
     + 8 x_8 + 12 x_9 + 30 x_10 + 15 x_11 + x_13 + 23 x_14 + 100 x_15 + 20 x_17
     + 3 x_18 + 40 x_20 + 6 x_21 + 8 x_22 + 6 x_24 + 4 x_25 + 22 x_26 + 4 x_27
     + 6 x_28 + x_29 + 5 x_30 + 14 x_31 + 8 x_32 + 2 x_33 + 8 x_34 + 20 x_36
      <= 500
 c4: 8 x_0 + 71 x_1 + 30 x_2 + 60 x_3 + 200 x_4 + 18 x_5 + 6 x_6 + 30 x_7
     + 4 x_8 + 8 x_9 + 31 x_10 + 6 x_11 + 3 x_12 + 18 x_14 + 60 x_15 + 21 x_16
     + 4 x_17 + 2 x_19 + 32 x_20 + 15 x_21 + 31 x_22 + 2 x_23 + 2 x_24 + 7 x_25
     + 8 x_26 + 2 x_27 + 8 x_28 + 2 x_30 + 8 x_31 + 6 x_32 + 7 x_33 + x_34
     + 20 x_37 + 8 x_38 <= 500
 c5: 38 x_0 + 52 x_1 + 30 x_2 + 42 x_3 + 170 x_4 + 9 x_5 + 7 x_6 + 20 x_7
     + 3 x_9 + 21 x_10 + 4 x_11 + x_12 + 2 x_13 + 14 x_14 + 310 x_15 + 8 x_16
     + 4 x_17 + 6 x_18 + x_19 + 18 x_20 + 15 x_21 + 38 x_22 + 10 x_23 + 4 x_24
     + 8 x_25 + 6 x_26 + 3 x_29 + 10 x_31 + 6 x_32 + x_33 + 3 x_34 + 3 x_36
     + 5 x_37 + 4 x_38 <= 600

Bounds
 0 <= x_0 <= 1
 0 <= x_1 <= 1
 0 <= x_2 <= 1
 0 <= x_3 <= 1
 0 <= x_4 <= 1
 0 <= x_5 <= 1
 0 <= x_6 <= 1
 0 <= x_7 <= 1
 0 <= x_8 <= 1
 0 <= x_9 <= 1
 0 <= x_10 <= 1
 0 <= x_11 <= 1
 0 <= x_12 <= 1
 0 <= x_13 <= 1
 0 <= x_14 <= 1
 0 <= x_15 <= 1
 0 <= x_16 <= 1
 0 <= x_17 <= 1
 0 <= x_18 <= 1
 0 <= x_19 <= 1
 0 <= x_20 <= 1
 0 <= x_21 <= 1
 0 <= x_22 <= 1
 0 <= x_23 <= 1
 0 <= x_24 <= 1
 0 <= x_25 <= 1
 0 <= x_26 <= 1
 0 <= x_27 <= 1
 0 <= x_28 <= 1
 0 <= x_29 <= 1
 0 <= x_30 <= 1
 0 <= x_31 <= 1
 0 <= x_32 <= 1
 0 <= x_33 <= 1
 0 <= x_34 <= 1
 0 <= x_35 <= 1
 0 <= x_36 <= 1
 0 <= x_37 <= 1
 0 <= x_38 <= 1

Binaries
 x_0 x_1 x_2 x_3 x_4 x_5 x_6 x_7 x_8 x_9 x_10 x_11 x_12 x_13 x_14 x_15 x_16 x_17
 x_18 x_19 x_20 x_21 x_22 x_23 x_24 x_25 x_26 x_27 x_28 x_29 x_30 x_31 x_32 x_33
 x_34 x_35 x_36 x_37 x_38
End
